WARNING: for repeatability, setting FPU to use double precision
============================[ Problem Statistics ]=============================
|                                                                             |
|  Number of variables:            50                                         |
|  Number of clauses:             218                                         |
|  Parse time:                   0.00 s                                       |
|                                                                             |
============================[ Search Statistics ]==============================
| Conflicts |          ORIGINAL         |          LEARNT          | Progress |
|           |    Vars  Clauses Literals |    Limit  Clauses Lit/Cl |          |
===============================================================================
===============================================================================
restarts              : 1
conflicts             : 79             (51905 /sec)
decisions             : 88             (0.00 % random) (57819 /sec)
propagations          : 1149           (754928 /sec)
conflict literals     : 320            (15.34 % deleted)
Memory used           : 20.00 MB
CPU time              : 0.001522 s

UNSATISFIABLE
